data/uel-lp-alt.log
GLPSOL--GLPK LP/MIP Solver 5.0
Parameter(s) specified in the command line:
 -m uel-lp-alt.txt -o uel-lp-alt.sol
Reading model section from uel-lp-alt.txt...
260 lines were read
Generating Eq1_2_3_down...
Generating Eq1_2_3_up...
Generating Eq4_down...
Generating Eq4_up...
Generating Eq5_6a_down...
Generating Eq5_6a_up...
Generating Eq5_6b_down...
Generating Eq5_6b_up...
Generating Eq8_down...
Generating Eq8_up...
Generating Eq9_down...
Generating Eq9_up...
Generating Eq10_down...
Generating Eq10_up...
Generating Eq12_down...
Generating Eq12_up...
Generating Eq13_down...
Generating Eq13_up...
Generating Eq14_down...
Generating Eq14_up...
Generating Eq15_down...
Generating Eq15_up...
Generating Eq16_17b_down...
Generating Eq16_17a_up...
Generating Eq18_down...
Generating Eq18_up...
Generating Eq19_down...
Generating Eq19_up...
Generating Eq20_21b_down...
Generating Eq20_21a_up...
Generating Eq22_down...
Generating Eq22_up...
Generating Eq23_down...
Generating Eq23_up...
Generating Eq24_down...
Generating Eq24_up...
Generating Eq25_down...
Generating Eq25_up...
Generating Eq26_down...
Generating Eq26_up...
Generating Eq27_down...
Generating Eq27_up...
Generating Eq28_down...
Generating Eq28_up...
Generating Eq29_down...
Generating Eq29_up...
Generating Eq31_down...
Generating Eq31_up...
Generating Eq33_down...
Generating Eq33_up...
Generating Eq34_down...
Generating Eq34_up...
Generating Eq35_down...
Generating Eq35_up...
Generating Eq37_down...
Generating Eq37_up...
Generating Eq38_down...
Generating Eq38_up...
Generating Eq39_down...
Generating Eq39_up...
Generating Eq40_down...
Generating Eq40_up...
Generating Eq41_down...
Generating Eq41_up...
Generating Eq42_down...
Generating Eq42_up...
Generating Eq43_down...
Generating Eq43_up...
Generating Eq44_down...
Generating Eq44_up...
Generating Eq46_down...
Generating Eq46_up...
Generating Eq47_down...
Generating Eq47_up...
Generating Eq49_down...
Generating Eq49_up...
Generating Eq50_down...
Generating Eq50_up...
Generating Eq51_down...
Generating Eq51_up...
Generating Eq52_down...
Generating Eq52_up...
Generating Eq54_down...
Generating Eq54_up...
Generating Eq55_down...
Generating Eq55_up...
Generating Eq56_down...
Generating Eq56_up...
Generating Eq57_down...
Generating Eq57_up...
Generating Eq58_down...
Generating Eq58_up...
Generating Eq59_down...
Generating Eq59_up...
Generating Eq60_down...
Generating Eq60_up...
Generating Eq61_down...
Generating Eq61_up...
Generating Eq62_down...
Generating Eq62_up...
Generating Eq63_down...
Generating Eq63_up...
Generating Eq64_down...
Generating Eq64_up...
Generating Eq65_down...
Generating Eq65_up...
Generating maxOfAllErrors...
Model has been successfully generated
GLPK Simplex Optimizer 5.0
107 rows, 43 columns, 333 non-zeros
Preprocessing...
106 rows, 43 columns, 332 non-zeros
Scaling...
 A: min|aij| =  1.000e+00  max|aij| =  4.000e+00  ratio =  4.000e+00
Problem data seem to be well scaled
Constructing initial basis...
Size of triangular part is 106
      0: obj =   0.000000000e+00 inf =   1.146e+02 (53)
     91: obj =   6.000000000e-02 inf =   0.000e+00 (0)
*    98: obj =   2.500000000e-02 inf =   0.000e+00 (0)
OPTIMAL LP SOLUTION FOUND
Time used:   0.0 secs
Memory used: 0.4 Mb (414964 bytes)
Cp	-0.54125
Cl	-0.26625
SPh	-0.25125
BH4	-0.28125
SiPr	-0.38125
OiPr	-0.74125
tmp	-0.45625
tBuCp	-0.54625
Cp*	-0.64625
NEt2	-0.79625
Me	-0.54625
Oet	-0.75625
TMSCp	-0.512917
MeCp	-0.552917
nu2NN'tetrazolate	-0.22125
SO3CF3	-0.01125
CH2Ph	-0.31625
CPiPr4	-0.59125
I	-0.12625
Br	-0.19625
N3	-0.32625
NCO	0
F	-0.52625
PN	-0.76625
PNP	-0.81625
bipy-	-0.54375
fc(NSi(tBu)Me2)2	-1.2575
Cp	-1.2925
SPh	-0.50625
OiPr	-0.73125
tmp	-0.62125
NEt2	-0.55125
Me	-0.59625
Oet	-0.62625
TMSCp	-0.68125
MeCp	-0.51125
n2NN'tetrazolate	-0.57125
SO3CF3	-0.58125
CH2Ph	-0.61125
CPiPr4	-0.65125
I	-0.66125
Br	-0.74125
N3	-0.75125
maxError	0.025
Model has been successfully processed
Writing basic solution to 'uel-lp-alt.sol'...
